CUSTOMERS : 10
VEHICLES : 2
0 81 96 313 131 256 221 217 270 202 65 
81 0 30 238 130 330 141 138 345 222 71 
96 30 0 242 109 332 130 124 347 251 100 
313 238 242 0 340 567 140 157 582 324 265 
131 130 109 340 0 271 209 196 286 329 178 
256 330 332 567 271 0 460 451 16 382 313 
221 141 130 140 209 460 0 18 475 319 199 
217 138 124 157 196 451 18 0 466 326 200 
270 345 347 582 286 16 475 466 0 392 327 
202 222 251 324 329 382 319 326 392 0 155 
65 71 100 265 178 313 199 200 327 155 0 
